Problem:    TSPMemoria
Rows:       116
Columns:    72 (43 integer, 39 binary)
Non-zeros:  332
Status:     INTEGER OPTIMAL
Objective:  total = 6629.86 (MINimum)

   No.   Row name        Activity     Lower bound   Upper bound
------ ------------    ------------- ------------- -------------
     1 total                 6629.86                             
     2 salida[0]                   1             1             = 
     3 salida[1]                   1             1             = 
     4 salida[2]                   1             1             = 
     5 salida[3]                   1             1             = 
     6 llegada[0]                  1             1             = 
     7 llegada[1]                  1             1             = 
     8 llegada[2]                  1             1             = 
     9 llegada[3]                  1             1             = 
    10 evitarSubTours[1,2]
                                   2                           2 
    11 evitarSubTours[1,3]
                                  -2                           2 
    12 evitarSubTours[2,1]
                                   1                           2 
    13 evitarSubTours[2,3]
                                   2                           2 
    14 evitarSubTours[3,1]
                                   2                           2 
    15 evitarSubTours[3,2]
                                   1                           2 
    16 rangoOrden[1]
                                   1             1             3 
    17 rangoOrden[2]
                                   2             1             3 
    18 rangoOrden[3]
                                   3             1             3 
    19 definicion1W[1,2]
                                  -4                          -0 
    20 definicion1W[1,3]
                                  -3                          -0 
    21 definicion1W[2,1]
                                  -1                          -0 
    22 definicion1W[2,3]
                                  -4                          -0 
    23 definicion1W[3,1]
                                  -2                          -0 
    24 definicion1W[3,2]
                                  -1                          -0 
    25 definicion2W[1,2]
                                   4                           5 
    26 definicion2W[1,3]
                                   3                           5 
    27 definicion2W[2,1]
                                   1                           5 
    28 definicion2W[2,3]
                                   4                           5 
    29 definicion2W[3,1]
                                   2                           5 
    30 definicion2W[3,2]
                                   1                           5 
    31 definicion1Z[1,1,2]
                                  -1                          -0 
    32 definicion1Z[1,1,3]
                                  -1                          -0 
    33 definicion1Z[1,2,2]
                                   0                          -0 
    34 definicion1Z[1,2,3]
                                   0                          -0 
    35 definicion1Z[1,3,2]
                                  -1                          -0 
    36 definicion1Z[1,3,3]
                                  -1                          -0 
    37 definicion1Z[2,1,1]
                                   0                          -0 
    38 definicion1Z[2,1,3]
                                  -1                          -0 
    39 definicion1Z[2,2,1]
                                   0                          -0 
    40 definicion1Z[2,2,3]
                                  -1                          -0 
    41 definicion1Z[2,3,1]
                                  -1                          -0 
    42 definicion1Z[2,3,3]
                                   0                          -0 
    43 definicion1Z[3,1,1]
                                   0                          -0 
    44 definicion1Z[3,1,2]
                                   0                          -0 
    45 definicion1Z[3,2,1]
                                   0                          -0 
    46 definicion1Z[3,2,2]
                                   0                          -0 
    47 definicion1Z[3,3,1]
                                   0                          -0 
    48 definicion1Z[3,3,2]
                                   0                          -0 
    49 definicion2Z[1,1,2]
                                   1                           1 
    50 definicion2Z[1,1,3]
                                   1                           1 
    51 definicion2Z[1,2,2]
                                   1                           1 
    52 definicion2Z[1,2,3]
                                   1                           1 
    53 definicion2Z[1,3,2]
                                   1                           1 
    54 definicion2Z[1,3,3]
                                   1                           1 
    55 definicion2Z[2,1,1]
                                   0                           1 
    56 definicion2Z[2,1,3]
                                   1                           1 
    57 definicion2Z[2,2,1]
                                   0                           1 
    58 definicion2Z[2,2,3]
                                   1                           1 
    59 definicion2Z[2,3,1]
                                   1                           1 
    60 definicion2Z[2,3,3]
                                   1                           1 
    61 definicion2Z[3,1,1]
                                   0                           1 
    62 definicion2Z[3,1,2]
                                   0                           1 
    63 definicion2Z[3,2,1]
                                   0                           1 
    64 definicion2Z[3,2,2]
                                   0                           1 
    65 definicion2Z[3,3,1]
                                   0                           1 
    66 definicion2Z[3,3,2]
                                   0                           1 
    67 tiempoViajeAntesDeK[1]
                                   0            -0             = 
    68 tiempoViajeAntesDeK[2]
                                   0            -0             = 
    69 tiempoViajeAntesDeK[3]
                                   0            -0             = 
    70 definicion1K[1]
                          -0.0678967                          -0 
    71 definicion1K[2]
                           -0.447363                          -0 
    72 definicion1K[3]
                           -0.451747                          -0 
    73 definicion2K[1]
                          -0.0678967       -0.9999               
    74 definicion2K[2]
                           -0.447363       -0.9999               
    75 definicion2K[3]
                           -0.451747       -0.9999               
    76 definicionK0                0            -0             = 
    77 definicionD[1]
                                   0            -0             = 
    78 definicionD[2]
                                   0            -0             = 
    79 definicionD[3]
                                   0            -0             = 
    80 tiempoEstadiaEnI[0]
                                   7             7             = 
    81 tiempoEstadiaEnI[1]
                                   7             7             = 
    82 tiempoEstadiaEnI[2]
                                   7             7             = 
    83 tiempoEstadiaEnI[3]
                                   7             7             = 
    84 definicion1T[1,2]
                                  50                          50 
    85 definicion1T[1,3]
                                  50                          50 
    86 definicion1T[2,1]
                                   7                          50 
    87 definicion1T[2,3]
                                  50                          50 
    88 definicion1T[3,1]
                                  12                          50 
    89 definicion1T[3,2]
                                  12                          50 
    90 definicion2T[1,2]
                                 -43                          -0 
    91 definicion2T[1,3]
                                 -43                          -0 
    92 definicion2T[2,1]
                                   0                          -0 
    93 definicion2T[2,3]
                                 -43                          -0 
    94 definicion2T[3,1]
                                   0                          -0 
    95 definicion2T[3,2]
                                   0                          -0 
    96 definicion3T[1,2]
                                  -7                          -0 
    97 definicion3T[1,3]
                                  -7                          -0 
    98 definicion3T[2,1]
                                   0                          -0 
    99 definicion3T[2,3]
                                  -7                          -0 
   100 definicion3T[3,1]
                                   0                          -0 
   101 definicion3T[3,2]
                                   0                          -0 
   102 definicion4T[1,2]
                                   0                          -0 
   103 definicion4T[1,3]
                                   0                          -0 
   104 definicion4T[2,1]
                                  -7                          -0 
   105 definicion4T[2,3]
                                   0                          -0 
   106 definicion4T[3,1]
                                 -12                          -0 
   107 definicion4T[3,2]
                                 -12                          -0 
   108 tiempoEstadiaAntesDeJ[1]
                                   0            -0             = 
   109 tiempoEstadiaAntesDeJ[2]
                                   0            -0             = 
   110 tiempoEstadiaAntesDeJ[3]
                                   0            -0             = 
   111 tiempoTotalAntesDeJ[1]
                                   0            -0             = 
   112 tiempoTotalAntesDeJ[2]
                                   0            -0             = 
   113 tiempoTotalAntesDeJ[3]
                                   0            -0             = 
   114 estadiaArgentina
                             14.0509                          31 
   115 estadiaBrasil1
                                  31            31               
   116 estadiaBrasil2
                                  43                          59 

   No. Column name       Activity     Lower bound   Upper bound
------ ------------    ------------- ------------- -------------
     1 Y[0,1]       *              1             0             1 
     2 Y[0,2]       *              0             0             1 
     3 Y[0,3]       *              0             0             1 
     4 Y[1,0]       *              0             0             1 
     5 Y[1,1]       *              0             0             1 
     6 Y[1,2]       *              1             0             1 
     7 Y[1,3]       *              0             0             1 
     8 Y[2,0]       *              0             0             1 
     9 Y[2,1]       *              0             0             1 
    10 Y[2,2]       *              0             0             1 
    11 Y[2,3]       *              1             0             1 
    12 Y[3,0]       *              1             0             1 
    13 Y[3,1]       *              0             0             1 
    14 Y[3,2]       *              0             0             1 
    15 Y[3,3]       *              0             0             1 
    16 W[1,2]       *              1             0             1 
    17 W[1,3]       *              1             0             1 
    18 W[2,1]       *              0             0             1 
    19 W[2,3]       *              1             0             1 
    20 W[3,1]       *              0             0             1 
    21 W[3,2]       *              0             0             1 
    22 Z[1,1,2]     *              0             0             1 
    23 Z[1,1,3]     *              0             0             1 
    24 Z[1,2,2]     *              1             0             1 
    25 Z[1,2,3]     *              1             0             1 
    26 Z[1,3,2]     *              0             0             1 
    27 Z[1,3,3]     *              0             0             1 
    28 Z[2,1,1]     *              0             0             1 
    29 Z[2,1,3]     *              0             0             1 
    30 Z[2,2,1]     *              0             0             1 
    31 Z[2,2,3]     *              0             0             1 
    32 Z[2,3,1]     *              0             0             1 
    33 Z[2,3,3]     *              1             0             1 
    34 Z[3,1,1]     *              0             0             1 
    35 Z[3,1,2]     *              0             0             1 
    36 Z[3,2,1]     *              0             0             1 
    37 Z[3,2,2]     *              0             0             1 
    38 Z[3,3,1]     *              0             0             1 
    39 Z[3,3,2]     *              0             0             1 
    40 U[2]                        2                             
    41 U[1]                        1                             
    42 U[3]                        3                             
    43 TE[0]                       7             0               
    44 TE[1]                       7             0               
    45 TE[2]                       7             0               
    46 TE[3]                      12             0               
    47 TEA[1]                      7             0               
    48 TEA[2]                     14             0               
    49 TEA[3]                29.9112             0               
    50 TVA[1]              0.0509225             0               
    51 TVA[2]               0.335523             0               
    52 TVA[3]                1.08881             0               
    53 TTA[1]                7.05092             0               
    54 TTA[2]                14.3355             0               
    55 TTA[3]                     31             0               
    56 T[1,2]                      7             0               
    57 T[1,3]                      7             0               
    58 T[2,1]                      0             0               
    59 T[2,3]                      7             0               
    60 T[3,1]                      0             0               
    61 T[3,2]                      0             0               
    62 T[0,1]                      0             0               
    63 T[0,2]                      0             0               
    64 T[0,3]                8.91119             0               
    65 D[1]                        0             0               
    66 D[2]                        0             0               
    67 D[3]                        1             0               
    68 D[0]                        0             0               
    69 K[1]         *              0             0               
    70 K[2]         *              0             0               
    71 K[3]         *              1             0               
    72 K[0]         *              0             0               

Integer feasibility conditions:

KKT.PE: max.abs.err = 0.00e+00 on row 0
        max.rel.err = 0.00e+00 on row 0
        High quality

KKT.PB: max.abs.err = 0.00e+00 on row 0
        max.rel.err = 0.00e+00 on row 0
        High quality

End of output
